# Solution for model GasLib-40
# Objective value = 3.1449490232852220e+01
loadshed[innode_1] 0
loadshed[innode_2] 0
loadshed[innode_3] 0
loadshed[innode_4] 0
loadshed[innode_5] 0
loadshed[innode_6] 0
loadshed[innode_7] 0
loadshed[innode_8] 0
loadshed[source_1] -1.0350965579200455e-01
loadshed[source_2] 5.6770834798978154e-02
loadshed[source_3] 2.4567256109974589e-01
loadshed[sink_1] 0
loadshed[sink_2] 0
loadshed[sink_3] 0
loadshed[sink_4] 0
loadshed[sink_5] 0
loadshed[sink_6] 0
loadshed[sink_7] 0
loadshed[sink_8] 0
loadshed[sink_9] 0
loadshed[sink_10] 0
loadshed[sink_11] 0
loadshed[sink_12] 1
loadshed[sink_13] 0
loadshed[sink_14] 0
loadshed[sink_15] 0
loadshed[sink_16] 0
loadshed[sink_17] 0
loadshed[sink_18] 0
loadshed[sink_19] 0
loadshed[sink_20] 0
loadshed[sink_21] 0.923026154365486
loadshed[sink_22] 0
loadshed[sink_23] 0
loadshed[sink_24] 0
loadshed[sink_25] 0
loadshed[sink_26] 0
loadshed[sink_27] 0
loadshed[sink_28] 0
loadshed[sink_29] 0
flow[source_1,sink_3] 1.7445414801461794e+02
flow[innode_1,sink_16] 1.6354166666666970e+01
flow[innode_6,sink_13] -4.7726676844734612e+00
flow[sink_13,sink_14] -2.1126834351140129e+01
flow[sink_14,sink_10] -37.4810010178068
flow[sink_25,sink_26] 9.8125000000000455e+01
flow[sink_26,sink_9] 8.1770833333333655e+01
flow[sink_9,sink_18] 6.5416666666666671e+01
flow[sink_26,sink_4] 0
flow[sink_4,sink_20] -16.3541666666693
flow[sink_18,sink_6] 4.9062500000000313e+01
flow[sink_25,innode_8] -1.4174581468128159e+02
flow[sink_6,sink_7] 0
flow[sink_6,sink_22] 3.2708333333333641e+01
flow[sink_7,sink_24] 1.7613009767147780e+01
flow[sink_22,sink_1] 1.6354166666666970e+01
flow[sink_24,sink_21] 1.2588431004811156e+00
flow[sink_21,sink_12] 0
flow[sink_7,sink_5] -3.3967176433814451e+01
flow[sink_5,sink_17] -5.0321343100481116e+01
flow[sink_17,sink_4] 0
flow[sink_17,sink_8] -6.6675509767147787e+01
flow[sink_3,sink_23] 16.3541666666697
flow[sink_8,sink_20] -8.3029676433814458e+01
flow[sink_25,sink_20] 1.1573800976715040e+02
flow[sink_25,sink_15] -83.6986940680631
flow[sink_15,sink_29] -5.6576493889217417e+01
flow[sink_29,sink_28] 1.6354166666667879e+01
flow[sink_29,sink_2] 5.9830533512179031e+01
flow[sink_2,sink_15] 4.3476366845512359e+01
flow[sink_29,innode_7] -1.4911536073473098e+02
flow[innode_4,sink_19] 4.6229368998739275e+01
flow[sink_19,innode_3] 4.2232863196771682e+01
flow[innode_4,innode_5] 73.0224653524016
flow[sink_27,innode_5] -73.0224653524016
flow[sink_27,sink_19] 5.6668298685734932e+01
flow[sink_10,sink_11] 3.2708333333333641e+01
flow[sink_10,innode_2] -4.4310637821035421e+01
flow[sink_10,innode_3] -4.2232863196771682e+01
flow[innode_6,sink_25] 4.7726676844734612e+00
flow[sink_11,innode_1] 1.6354166666666970e+01
flow[sink_19,innode_2] 4.4310637821035421e+01
flow[source_3,innode_4] 1.1925183435114087e+02
flow[source_2,innode_7] 1.4911536073473098e+02
flow[sink_3,innode_8] 1.4174581468128159e+02
pressure[innode_1] 7.6646678943384117e+01
pressure[innode_2] 79.1403804687575
pressure[innode_3] 7.9046860575561169e+01
pressure[innode_4] 81.01325
pressure[innode_5] 80.9630212978441
pressure[innode_6] 7.4961462342605657e+01
pressure[innode_7] 81.01325
pressure[innode_8] 8.0430116427087242e+01
pressure[source_1] 81.01325
pressure[source_2] 81.01325
pressure[source_3] 81.01325
pressure[sink_1] 5.7378218384665445e+01
pressure[sink_2] 7.5509423322384450e+01
pressure[sink_3] 8.0430116427087242e+01
pressure[sink_4] 46.1700569899884
pressure[sink_5] 3.5319457390687333e+01
pressure[sink_6] 5.9479295995052823e+01
pressure[sink_7] 2.1192774335575965e+01
pressure[sink_8] 4.1583873920787376e+01
pressure[sink_9] 6.3156380798511108e+01
pressure[sink_10] 7.6798380250987663e+01
pressure[sink_11] 7.6646678943384117e+01
pressure[sink_12] 1.01325
pressure[sink_13] 74.9877732619633
pressure[sink_14] 7.5025581531643041e+01
pressure[sink_15] 7.5367482566670773e+01
pressure[sink_16] 7.5625029108566437e+01
pressure[sink_17] 3.9068033718558020e+01
pressure[sink_18] 6.0789410823312451e+01
pressure[sink_19] 79.1403804687575
pressure[sink_20] 4.7369874699380055e+01
pressure[sink_21] 1.01325
pressure[sink_22] 5.8441987527020459e+01
pressure[sink_23] 8.0265398415427455e+01
pressure[sink_24] 1.0271905177330982e+00
pressure[sink_25] 7.4961462342605657e+01
pressure[sink_26] 6.8050576218222460e+01
pressure[sink_27] 80.3570697664268
pressure[sink_28] 76.7297159854833
pressure[sink_29] 7.7024998259100485e+01
interdiction[source_1,sink_3] 0
interdiction[innode_1,sink_16] 0
interdiction[innode_6,sink_13] 0
interdiction[sink_13,sink_14] 0
interdiction[sink_14,sink_10] 0
interdiction[sink_25,sink_26] 0
interdiction[sink_26,sink_9] 0
interdiction[sink_9,sink_18] 0
interdiction[sink_26,sink_4] 1
interdiction[sink_4,sink_20] 0
interdiction[sink_18,sink_6] 0
interdiction[sink_25,innode_8] 0
interdiction[sink_6,sink_7] 1
interdiction[sink_6,sink_22] 0
interdiction[sink_7,sink_24] 0
interdiction[sink_22,sink_1] 0
interdiction[sink_24,sink_21] 0
interdiction[sink_21,sink_12] 0
interdiction[sink_7,sink_5] 0
interdiction[sink_5,sink_17] 0
interdiction[sink_17,sink_4] 1
interdiction[sink_17,sink_8] 0
interdiction[sink_3,sink_23] 0
interdiction[sink_8,sink_20] 0
interdiction[sink_25,sink_20] 0
interdiction[sink_25,sink_15] 0
interdiction[sink_15,sink_29] 0
interdiction[sink_29,sink_28] 0
interdiction[sink_29,sink_2] 0
interdiction[sink_2,sink_15] 0
interdiction[sink_29,innode_7] 0
interdiction[innode_4,sink_19] 0
interdiction[sink_19,innode_3] 0
interdiction[innode_4,innode_5] 0
interdiction[sink_27,innode_5] 0
interdiction[sink_27,sink_19] 0
interdiction[sink_10,sink_11] 0
interdiction[sink_10,innode_2] 0
interdiction[sink_10,innode_3] 0
interdiction[innode_6,sink_25] 0
interdiction[sink_11,innode_1] 0
interdiction[sink_19,innode_2] 0
interdiction[source_3,innode_4] 0
interdiction[source_2,innode_7] 0
interdiction[sink_3,innode_8] 0
WCcheckFlow[source_1,sink_3] 39
WCcheckFlow[innode_1,sink_16] 1
WCcheckFlow[innode_6,sink_13] 13
WCcheckFlow[sink_13,sink_14] 12
WCcheckFlow[sink_14,sink_10] 11
WCcheckFlow[sink_25,sink_26] 6
WCcheckFlow[sink_26,sink_9] 5
WCcheckFlow[sink_9,sink_18] 4
WCcheckFlow[sink_26,sink_4] 0
WCcheckFlow[sink_4,sink_20] -1
WCcheckFlow[sink_18,sink_6] 3
WCcheckFlow[sink_25,innode_8] -36
WCcheckFlow[sink_6,sink_7] 0
WCcheckFlow[sink_6,sink_22] 2
WCcheckFlow[sink_7,sink_24] 3
WCcheckFlow[sink_22,sink_1] 1
WCcheckFlow[sink_24,sink_21] 2
WCcheckFlow[sink_21,sink_12] 1
WCcheckFlow[sink_7,sink_5] -4
WCcheckFlow[sink_5,sink_17] -5
WCcheckFlow[sink_17,sink_4] 0
WCcheckFlow[sink_17,sink_8] -6
WCcheckFlow[sink_3,sink_23] 1
WCcheckFlow[sink_8,sink_20] -7
WCcheckFlow[sink_25,sink_20] 9
WCcheckFlow[sink_25,sink_15] 6
WCcheckFlow[sink_15,sink_29] 5
WCcheckFlow[sink_29,sink_28] 1
WCcheckFlow[sink_29,sink_2] 1
WCcheckFlow[sink_2,sink_15] 0
WCcheckFlow[sink_29,innode_7] 2
WCcheckFlow[innode_4,sink_19] -4
WCcheckFlow[sink_19,innode_3] -5
WCcheckFlow[innode_4,innode_5] 2
WCcheckFlow[sink_27,innode_5] -1
WCcheckFlow[sink_27,sink_19] 0
WCcheckFlow[sink_10,sink_11] 3
WCcheckFlow[sink_10,innode_2] 1
WCcheckFlow[sink_10,innode_3] 6
WCcheckFlow[innode_6,sink_25] -14
WCcheckFlow[sink_11,innode_1] 2
WCcheckFlow[sink_19,innode_2] 0
WCcheckFlow[source_3,innode_4] -1
WCcheckFlow[source_2,innode_7] -1
WCcheckFlow[sink_3,innode_8] 37
